527 143
164 598
872 708
768 531
680 145
291 574
140 605
493 220
289 268
271 674
31 925
45 537
777 21
625 42
687 662
244 802
12 130
457 299
468 199
941 846
930 349
566 440
143 559
12 566
25 91
796 129
51 162
853 817
984 778
426 314
